
Gurobi 13.0.1 (linux64) logging started Tue Apr  7 15:52:06 2026

Set parameter LogFile to value "logs_sparse/75B_3F_robust_gamma_0d025_theta_0d05199999999999999_2026-04-07_15h51m52s.log"
Set parameter MIPGap to value 0.005
Set parameter OptimalityTol to value 0.005
Gurobi Optimizer version 13.0.1 build v13.0.1rc0 (linux64 - "Linux Mint 22")

CPU model: 12th Gen Intel(R) Core(TM) i7-12700, instruction set [SSE2|AVX|AVX2]
Thread count: 20 physical cores, 20 logical processors, using up to 20 threads

Non-default parameters:
TimeLimit  3600
SoftMemLimit  12
MIPGap  0.005
OptimalityTol  0.005

Optimize a model with 45596 rows, 867096 columns and 2644377 nonzeros (Max)
Model fingerprint: 0x5bb079e6
Model has 832586 linear objective coefficients
Variable types: 12096 continuous, 855000 integer (855000 binary)
Coefficient statistics:
  Matrix range     [3e-05, 1e+05]
  Objective range  [1e+00, 3e+03]
  Bounds range     [1e+00, 1e+05]
  RHS range        [1e-02, 1e+05]

Presolve removed 23361 rows and 626653 columns
Presolve time: 1.56s
Presolved: 22235 rows, 240443 columns, 753764 nonzeros
Variable types: 5744 continuous, 234699 integer (234699 binary)
Found heuristic solution: objective -4.03800e+08
Deterministic concurrent LP optimizer: primal simplex, dual simplex, and barrier
Showing barrier log only...

Root barrier log...

Ordering time: 0.48s

Barrier statistics:
 AA' NZ     : 3.860e+05
 Factor NZ  : 3.362e+06 (roughly 130 MB of memory)
 Factor Ops : 9.985e+08 (less than 1 second per iteration)
 Threads    : 18

                  Objective                Residual
Iter       Primal          Dual         Primal    Dual     Compl     Time
   0  -1.21261331e+13  1.19814322e+09  3.52e+08 1.02e+03  1.47e+08     3s
   1  -1.48266170e+12  4.10543652e+09  4.31e+07 2.26e+02  1.83e+07     3s
   2  -4.59915583e+09  3.13104460e+09  1.43e+05 1.28e-10  6.63e+04     3s
   3  -1.41932851e+08  1.33674695e+09  4.48e+03 1.29e-10  4.48e+03     3s
   4   2.30715418e+08  8.88736988e+08  9.45e+02 7.80e-11  1.59e+03     3s
   5   2.83994341e+08  5.36018953e+08  4.57e+02 7.46e-11  6.18e+02     3s
   6   3.24272880e+08  3.85551812e+08  1.25e+02 6.71e-11  1.50e+02     3s
   7   3.25286115e+08  3.66458380e+08  1.15e+02 8.58e-11  1.07e+02     3s
   8   3.28122967e+08  3.53438174e+08  8.23e+01 9.75e-11  6.76e+01     3s
   9   3.33725787e+08  3.41083211e+08  2.08e+01 6.13e-11  1.88e+01     3s
  10   3.34981870e+08  3.38362884e+08  7.59e+00 7.64e-11  8.05e+00     3s
  11   3.35555527e+08  3.37074672e+08  1.59e+00 7.55e-11  3.25e+00     3s
  12   3.35681009e+08  3.36289989e+08  5.20e-01 1.45e-10  1.25e+00     3s
  13   3.35762140e+08  3.36012116e+08  1.05e-01 9.67e-11  5.09e-01     3s
  14   3.35796795e+08  3.35926808e+08  2.63e-02 9.06e-11  2.64e-01     3s
  15   3.35814945e+08  3.35859788e+08  4.66e-03 1.02e-10  9.11e-02     4s
  16   3.35818095e+08  3.35839788e+08  2.08e-03 8.84e-11  4.41e-02     4s
  17   3.35819735e+08  3.35831515e+08  9.86e-04 9.03e-11  2.39e-02     4s
  18   3.35820386e+08  3.35827315e+08  6.36e-04 1.07e-10  1.41e-02     4s
  19   3.35821027e+08  3.35826092e+08  3.01e-04 1.12e-10  1.03e-02     4s
  20   3.35821232e+08  3.35824472e+08  2.00e-04 1.22e-10  6.58e-03     4s
  21   3.35821346e+08  3.35823817e+08  1.44e-04 1.13e-10  5.02e-03     4s
  22   3.35821437e+08  3.35823332e+08  1.06e-04 1.33e-10  3.85e-03     4s
  23   3.35821539e+08  3.35822727e+08  6.36e-05 1.16e-10  2.41e-03     4s
  24   3.35821603e+08  3.35822386e+08  3.70e-05 1.01e-10  1.59e-03     4s
  25   3.35821654e+08  3.35822053e+08  1.48e-05 1.05e-10  8.10e-04     4s
  26   3.35821676e+08  3.35821920e+08  6.18e-06 1.02e-10  4.96e-04     4s
  27   3.35821678e+08  3.35821871e+08  5.10e-06 1.15e-10  3.92e-04     4s
  28   3.35821684e+08  3.35821830e+08  3.13e-06 1.29e-10  2.97e-04     4s
  29   3.35821685e+08  3.35821775e+08  2.56e-06 1.06e-10  1.82e-04     4s
  30   3.35821687e+08  3.35821747e+08  1.60e-06 1.19e-10  1.22e-04     4s
  31   3.35821690e+08  3.35821724e+08  7.69e-07 1.02e-10  6.96e-05     4s
  32   3.35821691e+08  3.35821702e+08  2.31e-07 8.98e-11  2.23e-05     4s
  33   3.35821691e+08  3.35821697e+08  1.11e-07 9.43e-11  1.18e-05     4s
  34   3.35821692e+08  3.35821695e+08  8.11e-08 9.94e-11  6.47e-06     4s

Barrier solved model in 34 iterations and 4.43 seconds (6.56 work units)
Optimal objective 3.35821692e+08

Crossover time: 0.45 seconds (0.44 work units)
Concurrent spin time: 0.82s (can be avoided by choosing Method=3)

Solved with barrier

Root simplex log...

Iteration    Objective       Primal Inf.    Dual Inf.      Time
   12046    3.3582169e+08   0.000000e+00   0.000000e+00      6s

Root relaxation: objective 3.358217e+08, 12046 iterations, 3.74 seconds (3.54 work units)

    Nodes    |    Current Node    |     Objective Bounds      |     Work
 Expl Unexpl |  Obj  Depth IntInf | Incumbent    BestBd   Gap | It/Node Time

     0     0 3.3582e+08    0 6540 -4.038e+08 3.3582e+08   183%     -    6s
H    0     0                    -632089.2799 3.3582e+08      -     -    7s
H    0     0                    1.053615e+07 3.3582e+08  3087%     -    7s
H    0     0                    1.172803e+08 3.3582e+08   186%     -    7s
H    0     0                    1.178491e+08 3.3582e+08   185%     -    7s
H    0     0                    1.179315e+08 3.3582e+08   185%     -   10s
H    0     0                    1.179341e+08 3.3582e+08   185%     -   10s
H    0     0                    1.179798e+08 3.3582e+08   185%     -   10s
H    0     0                    1.187907e+08 3.3582e+08   183%     -   10s
H    0     0                    1.188975e+08 3.3582e+08   182%     -   12s
H    0     0                    1.792044e+08 3.3582e+08  87.4%     -   13s
H    0     0                    2.524874e+08 3.3582e+08  33.0%     -   13s
H    0     0                    2.524923e+08 3.3582e+08  33.0%     -   15s
     0     0 3.3582e+08    0 5346 2.5249e+08 3.3582e+08  33.0%     -  253s
H    0     0                    2.526851e+08 3.3582e+08  32.9%     -  331s
H    0     0                    2.526879e+08 3.3582e+08  32.9%     -  354s
H    0     0                    2.528735e+08 3.3582e+08  32.8%     -  378s
     0     0 3.3582e+08    0 6307 2.5287e+08 3.3582e+08  32.8%     -  852s
H    0     0                    3.209091e+08 3.3582e+08  4.65%     -  854s
H    0     0                    3.219100e+08 3.3582e+08  4.32%     -  855s
H    0     0                    3.229685e+08 3.3582e+08  3.98%     -  860s
H    0     0                    3.230662e+08 3.3582e+08  3.95%     -  866s
H    0     0                    3.230749e+08 3.3582e+08  3.95%     -  873s
H    0     0                    3.243301e+08 3.3582e+08  3.54%     -  883s
H    0     0                    3.251528e+08 3.3582e+08  3.28%     -  889s
H    0     0                    3.255179e+08 3.3582e+08  3.17%     -  894s
H    0     0                    3.265369e+08 3.3582e+08  2.84%     -  914s
H    0     0                    3.267276e+08 3.3582e+08  2.78%     -  919s
H    0     0                    3.267283e+08 3.3582e+08  2.78%     -  931s
H    0     0                    3.267298e+08 3.3582e+08  2.78%     -  955s
H    0     0                    3.271146e+08 3.3582e+08  2.66%     -  974s
H    0     0                    3.272191e+08 3.3582e+08  2.63%     -  979s
H    0     0                    3.275086e+08 3.3582e+08  2.54%     - 1049s
H    0     0                    3.275096e+08 3.3582e+08  2.54%     - 1087s
H    0     0                    3.275097e+08 3.3582e+08  2.54%     - 1087s
H    0     0                    3.277260e+08 3.3582e+08  2.47%     - 1087s
H    0     0                    3.280341e+08 3.3582e+08  2.37%     - 1087s
H    0     0                    3.281021e+08 3.3582e+08  2.35%     - 1087s
H    0     0                    3.281554e+08 3.3582e+08  2.34%     - 1106s
H    0     0                    3.281870e+08 3.3582e+08  2.33%     - 1106s
H    0     0                    3.281890e+08 3.3582e+08  2.33%     - 1106s
H    0     0                    3.281966e+08 3.3582e+08  2.32%     - 1106s
     0     0 3.3582e+08    0 6056 3.2820e+08 3.3582e+08  2.32%     - 1317s
     0     0 3.3582e+08    0 6589 3.2820e+08 3.3582e+08  2.32%     - 1522s
     0     0 3.3582e+08    0 6093 3.2820e+08 3.3582e+08  2.32%     - 1556s
     0     0 3.3582e+08    0 6457 3.2820e+08 3.3582e+08  2.32%     - 1686s
     0     0 3.3582e+08    0 6457 3.2820e+08 3.3582e+08  2.32%     - 1687s
     0     0 3.3582e+08    0 6184 3.2820e+08 3.3582e+08  2.32%     - 1688s
     0     2 3.3582e+08    0 6184 3.2820e+08 3.3582e+08  2.32%     - 1967s
     1     3 3.3582e+08    1 4699 3.2820e+08 3.3582e+08  2.32% 49585 2007s
     2     4 3.3582e+08    1 6389 3.2820e+08 3.3582e+08  2.32% 155051 2193s
     3     5 3.3582e+08    2 4894 3.2820e+08 3.3582e+08  2.32% 166846 2330s
H    4     7                    3.281977e+08 3.3582e+08  2.32% 125134 2519s
     6    12 3.3582e+08    3 4979 3.2820e+08 3.3582e+08  2.32% 135419 2783s
H    7    12                    3.283352e+08 3.3582e+08  2.28% 116074 2783s
H    8    12                    3.284099e+08 3.3582e+08  2.26% 102010 2783s

Cutting planes:
  MIR: 11
  Flow cover: 51
  RLT: 3209
  Relax-and-lift: 94

Explored 11 nodes (2222083 simplex iterations) in 3600.11 seconds (5944.74 work units)
Thread count was 20 (of 20 available processors)

Solution count 10: 3.2841e+08 3.28335e+08 3.28198e+08 ... 3.27726e+08

Time limit reached
Best objective 3.284098714946e+08, best bound 3.358200974955e+08, gap 2.2564%
